words_easy_train/words_9_UNSAT.qaiger
aag 93 16 0 1 77
26
22
24
4
12
28
32
18
6
8
14
2
30
16
10
20
186
34 21 19
36 34 23
38 36 25
40 38 27
42 40 29
44 42 31
46 43 30
48 47 45
50 22 18
52 25 21
54 52 50
56 22 20
58 57 25
60 58 37
62 60 27
64 61 26
66 64 39
68 67 41
70 68 63
72 70 54
74 68 29
76 74 73
78 41 28
80 79 43
82 81 72
84 81 69
86 85 83
88 86 77
90 88 48
92 35 22
94 92 25
96 93 24
98 97 95
100 99 13
102 93 37
104 103 11
106 9 7
108 20 8
110 19 7
112 111 108
114 113 35
116 115 107
118 116 105
120 102 10
122 98 12
124 123 121
126 124 119
128 127 101
130 129 15
132 128 14
134 71 55
136 135 73
138 137 133
140 139 131
142 141 16
144 143 91
146 85 49
148 84 48
150 149 147
152 150 82
154 151 83
156 155 153
158 157 89
160 140 17
162 161 159
164 163 145
166 85 47
168 167 45
170 168 33
172 169 32
174 173 171
176 174 152
178 175 153
180 179 177
182 180 165
184 181 164
186 185 183
i0 1 x2[4]
i1 1 x2[2]
i2 1 x2[3]
i3 2 y1[1]
i4 2 y1[5]
i5 1 x2[5]
i6 1 x2[7]
i7 1 x2[0]
i8 2 y1[2]
i9 2 y1[3]
i10 2 y1[6]
i11 2 y1[0]
i12 1 x2[6]
i13 2 y1[7]
i14 2 y1[4]
i15 1 x2[1]
o0 bv[0]
c
simplified
  <=
    subtract
      53
      1 x2
    >> 2
      2 y1
