words_easy_train/words_9_UNSAT.qaiger.qdimacs
p cnf 93 232
a 9 10 11 12 13 14 15 16 0
e 1 2 3 4 5 6 7 8 17 18 19 20 21 22 23 24 25 26 27 28 29 30 31 32 33 34 35 36 37 38 39 40 41 42 43 44 45 46 47 48 49 50 51 52 53 54 55 56 57 58 59 60 61 62 63 64 65 66 67 68 69 70 71 72 73 74 75 76 77 78 79 80 81 82 83 84 85 86 87 88 89 90 91 92 93 0
10 9 17 0
-10 -17 0
-9 -17 0
-17 11 18 0
17 -18 0
-11 -18 0
-18 12 19 0
18 -19 0
-12 -19 0
-19 13 20 0
19 -20 0
-13 -20 0
-20 14 21 0
20 -21 0
-14 -21 0
-21 15 22 0
21 -22 0
-15 -22 0
21 -15 23 0
-21 -23 0
15 -23 0
23 22 24 0
-23 -24 0
-22 -24 0
-11 -9 25 0
11 -25 0
9 -25 0
12 10 26 0
-12 -26 0
-10 -26 0
-26 -25 27 0
26 -27 0
25 -27 0
-11 -10 28 0
11 -28 0
10 -28 0
28 12 29 0
-28 -29 0
-12 -29 0
-29 18 30 0
29 -30 0
-18 -30 0
-30 13 31 0
30 -31 0
-13 -31 0
30 -13 32 0
-30 -32 0
13 -32 0
-32 19 33 0
32 -33 0
-19 -33 0
33 20 34 0
-33 -34 0
-20 -34 0
-34 31 35 0
34 -35 0
-31 -35 0
-35 -27 36 0
35 -36 0
27 -36 0
-34 14 37 0
34 -37 0
-14 -37 0
-37 36 38 0
37 -38 0
-36 -38 0
20 -14 39 0
-20 -39 0
14 -39 0
39 21 40 0
-39 -40 0
-21 -40 0
40 -36 41 0
-40 -41 0
36 -41 0
40 34 42 0
-40 -42 0
-34 -42 0
42 41 43 0
-42 -43 0
-41 -43 0
-43 38 44 0
43 -44 0
-38 -44 0
-44 -24 45 0
44 -45 0
24 -45 0
17 -11 46 0
-17 -46 0
11 -46 0
-46 12 47 0
46 -47 0
-12 -47 0
46 -12 48 0
-46 -48 0
12 -48 0
48 47 49 0
-48 -49 0
-47 -49 0
49 6 50 0
-49 -50 0
-6 -50 0
46 18 51 0
-46 -51 0
-18 -51 0
51 5 52 0
-51 -52 0
-5 -52 0
4 3 53 0
-4 -53 0
-3 -53 0
-10 -4 54 0
10 -54 0
4 -54 0
9 3 55 0
-9 -55 0
-3 -55 0
55 -54 56 0
-55 -56 0
54 -56 0
56 17 57 0
-56 -57 0
-17 -57 0
57 53 58 0
-57 -58 0
-53 -58 0
-58 52 59 0
58 -59 0
-52 -59 0
-51 -5 60 0
51 -60 0
5 -60 0
-49 -6 61 0
49 -61 0
6 -61 0
61 60 62 0
-61 -62 0
-60 -62 0
-62 59 63 0
62 -63 0
-59 -63 0
63 50 64 0
-63 -64 0
-50 -64 0
64 7 65 0
-64 -65 0
-7 -65 0
-64 -7 66 0
64 -66 0
7 -66 0
35 27 67 0
-35 -67 0
-27 -67 0
67 36 68 0
-67 -68 0
-36 -68 0
68 66 69 0
-68 -69 0
-66 -69 0
69 65 70 0
-69 -70 0
-65 -70 0
70 -8 71 0
-70 -71 0
8 -71 0
71 45 72 0
-71 -72 0
-45 -72 0
42 24 73 0
-42 -73 0
-24 -73 0
-42 -24 74 0
42 -74 0
24 -74 0
74 73 75 0
-74 -75 0
-73 -75 0
-75 -41 76 0
75 -76 0
41 -76 0
75 41 77 0
-75 -77 0
-41 -77 0
77 76 78 0
-77 -78 0
-76 -78 0
78 44 79 0
-78 -79 0
-44 -79 0
-70 8 80 0
70 -80 0
-8 -80 0
80 79 81 0
-80 -81 0
-79 -81 0
81 72 82 0
-81 -82 0
-72 -82 0
42 23 83 0
-42 -83 0
-23 -83 0
83 22 84 0
-83 -84 0
-22 -84 0
-84 16 85 0
84 -85 0
-16 -85 0
84 -16 86 0
-84 -86 0
16 -86 0
86 85 87 0
-86 -87 0
-85 -87 0
-87 -76 88 0
87 -88 0
76 -88 0
87 76 89 0
-87 -89 0
-76 -89 0
89 88 90 0
-89 -90 0
-88 -90 0
-90 82 91 0
90 -91 0
-82 -91 0
90 -82 92 0
-90 -92 0
82 -92 0
92 91 93 0
-92 -93 0
-91 -93 0
93 0
